SCIP Status        : solving was interrupted [time limit reached]
Total Time         :    3600.00
  solving          :    3600.00
  presolving       :       0.39 (included in solving)
  reading          :       0.00
  copying          :       3.56 (50 #copies) (minimal 0.00, maximal 0.15, average 0.07)
Original Problem   :
  Problem name     : bbbenchmark/g05_100.6.cut
  Variables        : 101 (100 binary, 0 integer, 0 implicit integer, 1 continuous)
  Constraints      : 1 initial, 1 maximal
  Objective        : minimize, 1 non-zeros (abs.min = 1, abs.max = 1)
Presolved Problem  :
  Problem name     : t_bbbenchmark/g05_100.6.cut
  Variables        : 1869 (100 binary, 0 integer, 1754 implicit integer, 15 continuous)
  Constraints      : 1797 initial, 11838 maximal
  Objective        : minimize, 1 non-zeros (abs.min = 1, abs.max = 1)
  Nonzeros         : 8643 constraint, 202 clique table
Presolvers         :   ExecTime  SetupTime  Calls  FixedVars   AggrVars   ChgTypes  ChgBounds   AddHoles    DelCons    AddCons   ChgSides   ChgCoefs
  boundshift       :       0.00       0.00      0          0          0          0          0          0          0          0          0          0
  convertinttobin  :       0.00       0.00      0          0          0          0          0          0          0          0          0          0
  domcol           :       0.00       0.00      1          0          0          0          0          0          0          0          0          0
  dualagg          :       0.00       0.00      0          0          0          0          0          0          0          0          0          0
  dualcomp         :       0.00       0.00      1          0          0          0          0          0          0          0          0          0
  dualinfer        :       0.00       0.00      0          0          0          0          0          0          0          0          0          0
  dualsparsify     :       0.00       0.00      1          0          0          0          0          0          0          0          0          0
  gateextraction   :       0.00       0.00      0          0          0          0          0          0          0          0          0          0
  implics          :       0.00       0.00      2          0          0          0          0          0          0          0          0          0
  inttobinary      :       0.00       0.00      0          0          0          0          0          0          0          0          0          0
  qpkktref         :       0.00       0.00      0          0          0          0          0          0          0          0          0          0
  redvub           :       0.00       0.00      0          0          0          0          0          0          0          0          0          0
  sparsify         :       0.00       0.00      1          0          0          0          0          0          0          0          0          0
  stuffing         :       0.00       0.00      0          0          0          0          0          0          0          0          0          0
  trivial          :       0.00       0.00      4          0          0          0          0          0          0          0          0          0
  tworowbnd        :       0.00       0.00      0          0          0          0          0          0          0          0          0          0
  dualfix          :       0.00       0.00      4          0          0          0          0          0          0          0          0          0
  genvbounds       :       0.00       0.00      0          0          0          0          0          0          0          0          0          0
  probing          :       0.31       0.00      1          0          0          0          0          0          0          0          0          0
  pseudoobj        :       0.00       0.00      1          0          0          0          1          0          0          0          0          0
  symmetry         :       0.00       0.00      0          0          0          0          0          0          0          0          0          0
  vbounds          :       0.00       0.00      1          0          0          0          0          0          0          0          0          0
  varbound         :       0.00       0.00      2          0          0          0          0          0          0          0          0          0
  and              :       0.01       0.00      2          0          0          0          0          0          0          0          0          0
  linear           :       0.00       0.00      2          0          0          0          0          0          0          0          0          0
  logicor          :       0.00       0.00      0          0          0          0          0          0          0          0          0          0
  bounddisjunction :       0.00       0.00      0          0          0          0          0          0          0          0          0          0
  nonlinear        :       0.07       0.01      5          0          0          0          1          0          0       1796          0          0
  benders          :       0.00       0.00      0          0          0          0          0          0          0          0          0          0
  components       :       0.00       0.00      1          0          0          0          0          0          0          0          0          0
  root node        :          -          -      -          0          -          -         14          -          -          -          -          -
Constraints        :     Number  MaxNumber  #Separate #Propagate    #EnfoLP    #EnfoRelax  #EnfoPS    #Check   #ResProp    Cutoffs    DomReds       Cuts    Applied      Conss   Children
  benderslp        :          0          0          0          0      60393          0          0      10904          0          0          0          0          0          0          0
  integral         :          0          0          0          0      60393          0          0      10904          0          0        991          0          0        582     119766
  varbound         :         14         14        113     420676          0          0          0         28          0          0      13157          0          0          0          0
  and              :       1754       1754      77754     549747         20          0          0         28     374195          3    1603160      14166      13139          0          0
  linear           :         29+       129        113     549799         20          0          0         26       1894         27     183838          0          0          0          0
  logicor          :          0+      8767          0      88036          0          0          0          0        117        297         70          0          0          0          0
  bounddisjunction :          0+      1517          0      47695          0          0          0          0          2         15          0          0          0          0          0
  benders          :          0          0          0          0         20          0          0         27          0          0          0          0          0          0          0
  countsols        :          0          0          0          0         20          0          0         27          0          0          0          0          0          0          0
  components       :          0          0          0          0          0          0          0          0          0          0          0          0          0          0          0
Constraint Timings :  TotalTime  SetupTime   Separate  Propagate     EnfoLP     EnfoPS     EnfoRelax   Check    ResProp    SB-Prop
  benderslp        :       0.04       0.00       0.00       0.00       0.04       0.00       0.00       0.00       0.00       0.00
  integral         :      51.75       0.00       0.00       0.00      51.74       0.00       0.00       0.01       0.00       0.00
  varbound         :       0.42       0.00       0.00       0.42       0.00       0.00       0.00       0.00       0.00       0.00
  and              :      87.94       0.00      55.73      31.40       0.01       0.00       0.00       0.01       0.30       0.49
  linear           :       3.05       0.00       0.03       3.00       0.00       0.00       0.00       0.00       0.00       0.02
  logicor          :       7.43       0.00       0.00       7.41       0.00       0.00       0.00       0.00       0.00       0.02
  bounddisjunction :       1.71       0.00       0.00       1.71       0.00       0.00       0.00       0.00       0.00       0.00
  benders          :       0.00       0.00       0.00       0.00       0.00       0.00       0.00       0.00       0.00       0.00
  countsols        :       0.00       0.00       0.00       0.00       0.00       0.00       0.00       0.00       0.00       0.00
  components       :       0.14       0.00       0.00       0.14       0.00       0.00       0.00       0.00       0.00       0.00
Propagators        : #Propagate   #ResProp    Cutoffs    DomReds
  dualfix          :          4          0          0          0
  genvbounds       :          0          0          0          0
  nlobbt           :          0          0          0          0
  obbt             :          0          0          0          0
  probing          :          0          0          0          0
  pseudoobj        :     252237          0          0         39
  redcost          :     151003          0          0      85890
  rootredcost      :         30          0          0          0
  symmetry         :          0          0          0          0
  vbounds          :      62435          0          0          0
Propagator Timings :  TotalTime  SetupTime   Presolve  Propagate    ResProp    SB-Prop
  dualfix          :       0.00       0.00       0.00       0.00       0.00       0.00
  genvbounds       :       0.42       0.00       0.00       0.42       0.00       0.00
  nlobbt           :       0.00       0.00       0.00       0.00       0.00       0.00
  obbt             :       0.01       0.00       0.00       0.01       0.00       0.00
  probing          :       0.31       0.00       0.31       0.00       0.00       0.00
  pseudoobj        :       0.57       0.00       0.00       0.56       0.00       0.01
  redcost          :      11.61       0.00       0.00      11.61       0.00       0.00
  rootredcost      :       0.43       0.00       0.00       0.43       0.00       0.00
  symmetry         :       0.19       0.00       0.00       0.19       0.00       0.00
  vbounds          :       0.45       0.00       0.00       0.44       0.00       0.01
Conflict Analysis  :       Time      Calls    Success    DomReds  Conflicts   Literals    Reconvs ReconvLits   Dualrays   Nonzeros   LP Iters   (pool size: [10000,10000])
  propagation      :       0.01        321        246          -        486       79.3          0        0.0          -          -          -
  infeasible LP    :       0.32        156        156          -       6114      133.9          0        0.0        375      146.7          0
  bound exceed. LP :      22.76       5340       4894          -     111984      108.6          2       64.5          0        0.0      54960
  strong branching :       0.00          0          0          -          0        0.0          0        0.0          -          -          0
  pseudo solution  :       0.00          0          0          -          0        0.0          0        0.0          -          -          -
  applied globally :       0.86          -          -          0      28915      115.5          -          -        375          -          -
  applied locally  :          -          -          -          0          0        0.0          -          -          0          -          -
Separators         :   ExecTime  SetupTime      Calls  RootCalls    Cutoffs    DomReds  FoundCuts ViaPoolAdd  DirectAdd    Applied ViaPoolApp  DirectApp      Conss
  cut pool         :       5.93          -      23451        140          -          -      39710    1540067          -          -          -          -          -    (maximal pool size:       2827)
  aggregation      :      17.41       0.00       5724        113          0          0        739        955          0        133        133          0          0
  > cmir           :          -          -          -          -          -          -          -        955          0        133        133          0          -
  > flowcover      :          -          -          -          -          -          -          -          0          0          0          0          0          -
  > knapsackcover  :          -          -          -          -          -          -          -          0          0          0          0          0          -
  cgmip            :       0.00       0.00          0          0          0          0          0          0          0          0          0          0          0
  clique           :       0.00       0.00        113        113          0          0          0          0          0          0          0          0          0
  closecuts        :       0.00       0.00          0          0          0          0          0          0          0          0          0          0          0
  convexproj       :       0.00       0.00          0          0          0          0          0          0          0          0          0          0          0
  disjunctive      :       0.00       0.00          0          0          0          0          0          0          0          0          0          0          0
  eccuts           :       0.00       0.00          0          0          0          0          0          0          0          0          0          0          0
  gauge            :       0.00       0.00          0          0          0          0          0          0          0          0          0          0          0
  gomory           :       0.00       0.00          0          0          0          0          0          0          0          0          0          0          0
  > gomorymi       :          -          -          -          -          -          -          -          0          0          0          0          0          -
  > strongcg       :          -          -          -          -          -          -          -          0          0          0          0          0          -
  impliedbounds    :       0.45       0.00       5724        113          0          0         21          0          0          0          0          0          0
  interlattice     :       0.64       0.00         83         83          0          0         83          0         83         82          0         82          0
  interminor       :       0.00       0.00          0          0          0          0          0          0          0          0          0          0          0
  intersub         :       0.08       0.00          2          2          0          0          0          0          0          0          0          0          0
  intobj           :       0.00       0.00          0          0          0          0          0          0          0          0          0          0          0
  mcf              :       0.00       0.00          1          1          0          0          0          0          0          0          0          0          0
  minor            :       0.02       0.00          0          0          0          0          0          0          0          0          0          0          0
  mixing           :       0.08       0.00       5724        113          0          0          0          0          0          0          0          0          0
  oddcycle         :       0.00       0.00          0          0          0          0          0          0          0          0          0          0          0
  rapidlearning    :       0.03       0.00          0          0          0          0          0          0          0          0          0          0          0
  rlt              :       0.00       0.00         10         10          0          0          0          0          0          0          0          0          0
  zerohalf         :      60.29       0.00       5191         20          0          0      38950    1539112          0     202956     202956          0          0
Cutselectors       :   ExecTime  SetupTime      Calls  RootCalls   Selected     Forced   Filtered  RootSelec   RootForc   RootFilt 
  hybrid           :       1.43       0.00      21722        113     216310          0    1338006        277          0         13
Pricers            :   ExecTime  SetupTime      Calls       Vars
  problem variables:       0.00          -          0          0
Branching Rules    :   ExecTime  SetupTime   BranchLP  BranchExt   BranchPS    Cutoffs    DomReds       Cuts      Conss   Children
  allfullstrong    :       0.00       0.00          0          0          0          0          0          0          0          0
  cloud            :       0.00       0.00          0          0          0          0          0          0          0          0
  distribution     :       0.00       0.00          0          0          0          0          0          0          0          0
  fullstrong       :       0.00       0.00          0          0          0          0          0          0          0          0
  inference        :       0.00       0.00          0          0          0          0          0          0          0          0
  leastinf         :       0.00       0.00          0          0          0          0          0          0          0          0
  lookahead        :       0.00       0.00          0          0          0          0          0          0          0          0
  mostinf          :       0.00       0.00          0          0          0          0          0          0          0          0
  multaggr         :       0.00       0.00          0          0          0          0          0          0          0          0
  nodereopt        :       0.00       0.00          0          0          0          0          0          0          0          0
  pscost           :       0.00       0.00          0          0          0          0          0          0          0          0
  random           :       0.00       0.00          0          0          0          0          0          0          0          0
  relpscost        :      51.57       0.00      60373          0          0          0        991          0        672     119766
  vanillafullstrong:       0.00       0.00          0          0          0          0          0          0          0          0
Primal Heuristics  :   ExecTime  SetupTime      Calls      Found       Best
  LP solutions     :       0.27          -          -         20         20
  relax solutions  :       0.00          -          -          0          0
  pseudo solutions :       0.00          -          -          0          0
  strong branching :       0.05          -          -          1          1
  actconsdiving    :       0.00       0.00          0          0          0
  adaptivediving   :       5.58       0.00         30          0          0
  alns             :       2.76       0.00         19          4          4
  bound            :       0.00       0.00          0          0          0
  clique           :       0.01       0.00          1          0          0
  coefdiving       :       0.00       0.00          0          0          0
  completesol      :       0.00       0.00          0          0          0
  conflictdiving   :     102.39       0.00        710          0          0
  crossover        :       7.48       0.00         13          2          2
  dins             :       0.00       0.00          0          0          0
  distributiondivin:      91.31       0.00        371          0          0
  dps              :       0.00       0.00          0          0          0
  dualval          :       0.00       0.00          0          0          0
  farkasdiving     :       0.01       0.00          0          0          0
  feaspump         :       0.30       0.00          1          1          1
  fixandinfer      :       0.00       0.00          0          0          0
  fracdiving       :      55.18       0.00        404          0          0
  gins             :       0.05       0.00          0          0          0
  guideddiving     :      53.96       0.00        403          2          2
  indicator        :       0.09       0.00          0          0          0
  indicatordiving  :       0.00       0.00          0          0          0
  intdiving        :       0.00       0.00          0          0          0
  intshifting      :       0.70       0.00         77          0          0
  linesearchdiving :      55.18       0.00        404          0          0
  localbranching   :       0.00       0.00          0          0          0
  locks            :       0.01       0.00          1          0          0
  lpface           :       0.08       0.00          0          0          0
  mpec             :     154.67       0.00         11          2          1
  multistart       :       0.00       0.00          0          0          0
  mutation         :       0.00       0.00          0          0          0
  nlpdiving        :      15.68       0.00          7          0          0
  objpscostdiving  :      58.83       0.00         43          6          0
  octane           :       0.00       0.00          0          0          0
  ofins            :       0.09       0.00          0          0          0
  oneopt           :       0.08       0.00         34          0          0
  padm             :       0.00       0.00          0          0          0
  proximity        :       0.00       0.00          0          0          0
  pscostdiving     :      72.99       0.00        351          1          1
  randrounding     :       1.22       0.00      10873          0          0
  rens             :       0.00       0.00          0          0          0
  reoptsols        :       0.00       0.00          0          0          0
  repair           :       0.00       0.00          0          0          0
  rins             :       8.52       0.00         17          0          0
  rootsoldiving    :      42.17       0.00         32          0          0
  rounding         :       1.45       0.00       3993          0          0
  shiftandpropagate:       0.00       0.00          0          0          0
  shifting         :      40.11       0.00       8596          2          2
  simplerounding   :       0.06       0.00          0          0          0
  subnlp           :     118.00       0.00          0          0          0
  trivial          :       0.00       0.00          2          2          2
  trivialnegation  :       0.00       0.00          0          0          0
  trustregion      :       0.00       0.00          0          0          0
  trysol           :       0.09       0.00          0          0          0
  twoopt           :       0.00       0.00          0          0          0
  undercover       :       2.02       0.00          1          1          1
  vbounds          :       0.00       0.00          0          0          0
  veclendiving     :      48.93       0.00        404          0          0
  zeroobj          :       0.00       0.00          0          0          0
  zirounding       :       0.49       0.00       1000          0          0
  other solutions  :          -          -          -          0          -
Diving (single)    :      Calls      Nodes   LP Iters Backtracks  Conflicts   MinDepth   MaxDepth   AvgDepth  RoundSols  NLeafSols  MinSolDpt  MaxSolDpt  AvgSolDpt
  actconsdiving    :          0          -          -          -          -          -          -          -          -          -          -          -          -
  coefdiving       :          0          -          -          -          -          -          -          -          -          -          -          -          -
  conflictdiving   :        710      34729     960266        722      44220         61         88       71.7          0          -          -          -          -
  distributiondivin:        371      13175     629997        422       7175         45         75       58.2          0          -          -          -          -
  farkasdiving     :          0          -          -          -          -          -          -          -          -          -          -          -          -
  fracdiving       :        404      48471     477525        212       2958         54        700      143.2          0          -          -          -          -
  guideddiving     :        403      40649     476028        143       5057         56        461      124.2          0          2         91        104       97.5
  indicatordiving  :          0          -          -          -          -          -          -          -          -          -          -          -          -
  linesearchdiving :        404      18966     509671        186      18850         50        107       69.5          0          -          -          -          -
  pscostdiving     :        351      14967     649401        360      10906         48         79       64.9          0          1         66         66       66.0
  veclendiving     :        404      18321     465171        275      24852         55         83       68.7          0          -          -          -          -
Diving (adaptive)  :      Calls      Nodes   LP Iters Backtracks  Conflicts   MinDepth   MaxDepth   AvgDepth  RoundSols  NLeafSols  MinSolDpt  MaxSolDpt  AvgSolDpt
  actconsdiving    :          2         86       3528          2         53         58         58       58.0          0          -          -          -          -
  coefdiving       :         10        494      12385          5        557         57         78       69.2          0          -          -          -          -
  conflictdiving   :          0          -          -          -          -          -          -          -          -          -          -          -          -
  distributiondivin:          0          -          -          -          -          -          -          -          -          -          -          -          -
  farkasdiving     :          0          -          -          -          -          -          -          -          -          -          -          -          -
  fracdiving       :          2        539       9359          9         40        102        467      284.5          0          -          -          -          -
  guideddiving     :          1         98       1063          0         21        117        117      117.0          0          -          -          -          -
  indicatordiving  :          0          -          -          -          -          -          -          -          -          -          -          -          -
  linesearchdiving :         11        576      14955          3        521         58         94       72.5          0          -          -          -          -
  pscostdiving     :          1         42       2464          1         34         60         60       60.0          0          -          -          -          -
  veclendiving     :          3        131       3534          1        153         64         70       66.3          0          -          -          -          -
Neighborhoods      :      Calls  SetupTime  SolveTime SolveNodes       Sols       Best       Exp3  EpsGreedy        UCB TgtFixRate  Opt  Inf Node Stal  Sol  Usr Othr Actv
  rens             :          2       0.11       0.07         11          0          0    0.00000   -1.00000    0.53422      0.550    0    2    0    0    0    0    0    1
  rins             :          1       0.01       0.01         15          0          0    0.00000   -1.00000    0.55423      0.700    0    1    0    0    0    0    0    1
  mutation         :          2       0.19       0.09         66          0          0    0.00000   -1.00000    0.47330      0.850    0    1    0    1    0    0    0    1
  localbranching   :          5       0.28       0.13        213          3          3    0.00000   -1.00000    0.53334      0.879    0    1    0    3    1    0    0    1
  crossover        :          2       0.22       0.08         73          0          0    0.00000   -1.00000    0.47045      0.850    0    1    0    1    0    0    0    1
  proximity        :          2       0.24       0.20         80          0          0    0.00000   -1.00000    0.46838      0.850    0    1    0    1    0    0    0    1
  zeroobjective    :          2       0.20       0.06         73          0          0    0.00000   -1.00000    0.46562      0.850    0    1    0    1    0    0    0    1
  dins             :          3       0.46       0.23        322          1          1    0.00000   -1.00000    0.48605      0.812    0    1    0    2    0    0    0    1
  trustregion      :          0       0.00       0.00          0          0          0    0.00000   -1.00000    1.00000      0.900    0    0    0    0    0    0    0    0
Expressions        :   #IntEval  IntEvalTi   #RevProp  RevPropTi    DomReds    Cutoffs  #Estimate  EstimTime  Branching  #Simplify SimplifyTi Simplified
  pow              :          0       0.00          0       0.00          0          0          0       0.00          0          0       0.00          0
  prod             :       9900       0.00          0       0.00          0          0          0       0.00          0       6704       0.00          0
  sum              :          8       0.00          2       0.00          0          0          0       0.00          0          3       0.01          2
  var              :       6416       0.00          0       0.00          0          0          0       0.00          0      15479       0.00          0
  varidx           :          0       0.00          0       0.00          0          0          0       0.00          0          0       0.00          0
LP                 :       Time      Calls Iterations  Iter/call   Iter/sec  Time-0-It Calls-0-It    ItLimit
  primal LP        :     100.50       8063          0       0.00       0.00     100.45       8063
  dual LP          :    2185.02     119019   12272937     111.06    5616.85       4.39       8516
  lex dual LP      :       0.00          0          0       0.00          -
  barrier LP       :       0.00          0          0       0.00          -       0.00          0
  resolve instable :       0.00          0          0       0.00          -
  diving/probing LP:     494.49      15060    4727455     313.91    9560.26
  strong branching :      23.61       1872     211736     113.11    8968.06          -          -         64
    (at root node) :          -         19       5378     283.05          -
  conflict analysis:       9.34       5654      54960       9.72    5884.37
NLP relaxation     :
  solve time       :      15.20 (16 calls)
  convexity        :  nonconvex (43 linear rows, 0 convex ineq., 0 nonconvex ineq., 1754 nonlinear eq. or two-sided ineq.)
NLP Solvers        :  #Problems  ProblemTi    #Solves  SolveTime      #Iter  Time/Iter      #Okay #TimeLimit #IterLimit #LObjLimit #Interrupt  #NumError #EvalError  #OutOfMem #LicenseEr #OtherTerm   #GlobOpt    #LocOpt  #Feasible #LocInfeas #GlobInfea #Unbounded   #Unknown
  ipopt            :         12       4.95         43     175.63       1812       0.10         43          0          0          0          0          0          0          0          0          0          0         27          0         10          0          0          6
B&B Tree           :
  number of runs   :          1
  nodes            :      88316 (59883 internal, 28433 leaves)
  feasible leaves  :         20
  infeas. leaves   :          6
  objective leaves :      28406
  nodes (total)    :      88316 (59883 internal, 28433 leaves)
  nodes left       :      31183
  max depth        :         72
  max depth (total):         72
  backtracks       :      14478 (16.4%)
  early backtracks :          0 (0.0%)
  nodes exc. ref.  :          0 (0.0%)
  delayed cutoffs  :          1
  repropagations   :       1062 (421 domain reductions, 0 cutoffs)
  avg switch length:       4.78
  switching time   :     124.09
Estim. Tree Size   :     177168
Estimation Tree    : 119767 nodes (88584 visited, 59883 internal, 28701 leaves, 31183 open), weight: 0.0000 completed 0.0886
Estimations        :      estim      value      trend resolution     smooth
  wbe              : 13788023620433          -          -          -          -
  tree-profile     :         -1          -          -          -          -
  gap              :    1384889    0.68366    0.00002         32    1458781
  tree-weight      :     177168    0.00000    0.00000         32     176800
  leaf-frequency   :     177168    0.32399   -0.00000         32     179287
  ssg              :    2221195    0.86006   -0.00003         32    2189503
  open-nodes       :     177168 31183.00000   23.67008         32     176800
Root Node          :
  First LP value   : -1.00000000000000e+00
  First LP Iters   :       1597 (10646.67 Iter/sec)
  First LP Time    :       0.15
  Final Dual Bound : -9.49048821548822e-01
  Final Root Iters :       3413
  Root LP Estimate : -4.00359516068185e-01
Solution           :
  Solutions found  :         44 (37 improvements)
  First Solution   : +1.00000000000000e+05   (in run 1, after 0 nodes, 0.04 seconds, depth 0, found by <trivial>)
  Gap First Sol.   :   infinite
  Gap Last Sol.    :      46.71 %
  Primal Bound     : -5.73333333333331e-01   (in run 1, after 81750 nodes, 2941.45 seconds, depth 40, found by <alns>)
  Dual Bound       : -8.38628606060606e-01
  Gap              :      46.27 %
Integrals          :      Total       Avg%
  primal-dual      :  124877.62      34.69
  primal-ref       :          -          - (not evaluated)
  dual-ref         :          -          - (not evaluated)
